NAME : traveling-santa-2018-prime-paths.30835.tour
COMMENT : Length = 30835
COMMENT : Found by LKH [Keld Helsgaun] Sun Jun 12 20:00:05 2022
TYPE : TOUR
DIMENSION : 100
TOUR_SECTION
1
25
89
69
12
63
80
86
22
95
58
84
60
30
14
64
7
20
90
53
28
18
36
93
74
98
99
56
39
19
85
41
23
59
3
34
62
27
100
55
38
33
40
46
9
81
35
91
32
52
92
26
76
94
2
77
5
67
47
31
13
57
61
51
11
29
50
73
83
16
88
8
43
71
17
24
48
54
70
6
44
42
15
45
21
65
10
96
66
4
49
82
87
75
72
68
78
97
37
79
-1
EOF
